p edge 89 364
e 1 3
e 1 15
e 1 38
e 1 42
e 1 47
e 1 63
e 1 67
e 1 74
e 1 77
e 2 15
e 2 20
e 2 29
e 2 38
e 2 47
e 2 48
e 2 51
e 2 57
e 2 69
e 3 4
e 3 10
e 3 11
e 3 13
e 3 39
e 3 47
e 3 51
e 3 57
e 4 5
e 4 55
e 4 59
e 4 66
e 4 70
e 5 10
e 5 16
e 5 26
e 5 49
e 5 57
e 5 65
e 5 75
e 6 15
e 6 28
e 6 39
e 6 53
e 6 63
e 6 65
e 6 68
e 7 8
e 7 19
e 7 33
e 7 44
e 7 46
e 7 60
e 7 61
e 7 65
e 7 68
e 7 70
e 7 79
e 7 82
e 7 86
e 7 89
e 8 16
e 8 24
e 8 34
e 8 41
e 8 44
e 8 72
e 9 34
e 9 42
e 9 45
e 9 67
e 9 84
e 10 19
e 10 24
e 10 59
e 10 63
e 10 67
e 10 71
e 10 79
e 11 22
e 11 33
e 11 49
e 11 50
e 11 58
e 11 79
e 12 14
e 12 19
e 12 35
e 12 45
e 12 56
e 12 63
e 12 79
e 13 15
e 13 23
e 13 24
e 13 35
e 13 45
e 13 47
e 13 50
e 13 83
e 14 32
e 14 35
e 14 45
e 14 46
e 14 52
e 14 74
e 15 16
e 15 26
e 15 37
e 15 42
e 15 56
e 15 75
e 15 83
e 15 84
e 16 41
e 16 48
e 16 57
e 16 66
e 17 21
e 17 39
e 17 58
e 17 69
e 17 78
e 18 20
e 18 23
e 18 27
e 18 35
e 18 51
e 18 66
e 18 81
e 19 22
e 19 34
e 19 43
e 19 59
e 19 65
e 19 70
e 19 76
e 20 28
e 20 48
e 20 51
e 20 53
e 20 54
e 20 56
e 20 70
e 20 76
e 20 79
e 21 23
e 21 24
e 21 55
e 21 66
e 21 68
e 21 81
e 21 87
e 22 23
e 22 27
e 22 32
e 22 68
e 22 69
e 22 70
e 22 74
e 22 75
e 22 86
e 23 38
e 23 49
e 23 59
e 23 70
e 24 34
e 24 40
e 24 50
e 24 58
e 24 67
e 24 69
e 24 75
e 24 78
e 24 87
e 25 41
e 25 59
e 25 71
e 25 76
e 25 85
e 26 31
e 26 41
e 26 73
e 27 41
e 27 54
e 27 56
e 27 68
e 27 88
e 28 41
e 28 52
e 28 54
e 29 33
e 29 50
e 29 56
e 29 58
e 29 64
e 29 81
e 30 33
e 30 53
e 30 60
e 30 76
e 30 84
e 31 33
e 31 34
e 31 35
e 31 42
e 31 46
e 31 73
e 31 89
e 32 53
e 32 54
e 32 57
e 32 72
e 32 81
e 33 42
e 33 65
e 33 68
e 33 80
e 33 82
e 33 87
e 34 35
e 34 65
e 34 77
e 34 85
e 34 87
e 35 62
e 36 63
e 36 79
e 37 77
e 37 86
e 38 39
e 38 59
e 38 89
e 39 60
e 39 63
e 39 67
e 39 75
e 39 81
e 39 85
e 40 49
e 40 58
e 40 71
e 40 74
e 41 50
e 41 51
e 41 57
e 41 61
e 41 62
e 41 66
e 41 70
e 41 81
e 42 48
e 42 56
e 42 59
e 42 64
e 42 72
e 42 75
e 43 45
e 43 47
e 43 48
e 43 51
e 43 63
e 43 84
e 43 86
e 44 52
e 44 56
e 44 64
e 44 65
e 44 74
e 44 76
e 44 79
e 44 83
e 45 57
e 45 63
e 45 66
e 45 68
e 45 72
e 45 75
e 45 81
e 46 65
e 46 73
e 46 80
e 46 87
e 47 49
e 47 58
e 47 74
e 47 78
e 48 53
e 49 50
e 49 55
e 49 89
e 50 71
e 51 52
e 51 70
e 51 74
e 51 78
e 52 56
e 52 65
e 52 71
e 52 85
e 52 86
e 53 61
e 53 84
e 54 59
e 54 65
e 54 82
e 54 85
e 54 87
e 55 65
e 55 73
e 55 79
e 55 83
e 56 68
e 56 70
e 56 80
e 56 81
e 56 83
e 56 84
e 57 63
e 57 71
e 57 79
e 57 85
e 58 77
e 58 83
e 58 85
e 58 87
e 59 62
e 59 77
e 59 79
e 60 68
e 61 65
e 61 76
e 61 84
e 63 77
e 63 78
e 63 83
e 64 77
e 64 79
e 65 69
e 65 72
e 65 78
e 65 80
e 65 82
e 66 72
e 66 83
e 67 76
e 68 74
e 68 80
e 68 81
e 68 88
e 69 71
e 69 84
e 70 78
e 70 86
e 71 78
e 71 82
e 72 77
e 73 79
e 73 83
e 74 82
e 75 76
e 76 78
e 78 82
e 82 89
e 85 86
e 88 89
